4862 4229 0 500 499 497 493 492 490 487 485 476 474 472 471 470 468 464 462 461 458 457 454 453 451 450 449 445 441 440 438 436 424 421 420 418 417 416 414 412 411 406 404 399 398 396 394 392 391 390 388 381 369 368 364 355 353 352 350 347 346 345 344 337 331 328 323 322 320 319 318 316 313 311 309 306 302 301 300 295 292 289 287 286 278 277 273 272 265 263 259 258 257 251 249 247 246 244 238 234 227 225 224 220 213 205 203 202 195 194 192 191 188 183 182 179 178 176 174 170 164 163 161 160 156 154 152 150 149 147 146 145 142 136 131 127 126 124 121 120 119 117 109 107 93 90 86 84 82 81 79 78 77 73 71 70 68 67 64 62 60 59 57 52 51 49 46 45 42 39 37 33 31 26 25 23 21 20 17 13 12 10 8 7 6 5 4 3 